\* paris_problem_q2i *\
Maximize
amount_of_locations_to_be_maximized: AC + AT + BS + CA + CN + CP + JT + ML
 + MO + PC + SC + TE + TM
Subject To
budget_constraint: 9.5 AT + 8 BS + 10 CA + 5 CN + 10 CP + 12 ML + 11 MO
 + 8.5 SC + 15.5 TE + 15 TM <= 65
preference_2: CA + TE = 2
preference_3: CN + SC <= 1
preference_5: CP - ML >= 0
time_constraint: 1.5 AC + AT + 2 BS + 2 CA + 2 CN + 2.5 CP + 1.5 JT + 3 ML
 + 2 MO + 0.75 PC + 1.5 SC + 4.5 TE + 2 TM <= 12
Binaries
AC
AT
BS
CA
CN
CP
JT
ML
MO
PC
SC
TE
TM
End
